p cnf 50 42
-1 21 44 0 
-2 13 23 24 25 26 27 30 31 -3 45 0 
-4 -5 22 -6 10 39 46 0 
-7 11 35 36 -8 46 0 
-9 42 46 0 
-10 6 39 -5 22 -11 7 35 36 46 0 
-12 46 0 
-13 2 23 24 25 26 27 30 31 46 0 
-14 15 16 18 28 29 32 -3 45 0 
-15 14 16 18 28 29 32 45 0 
-16 14 15 18 28 29 32 45 0 
-17 45 0 
-18 14 15 16 28 29 32 45 0 
-19 45 0 
-20 45 0 
-5 22 -21 1 46 0 
-21 1 46 0 
-6 10 39 -22 5 46 0 
-5 22 -11 7 35 36 46 0 
-11 7 35 36 46 0 
-5 22 -23 2 13 24 25 26 27 30 31 46 0 
-24 2 13 23 25 26 27 30 31 45 0 
-25 2 13 23 24 26 27 30 31 45 0 
-26 2 13 23 24 25 27 30 31 45 0 
-27 2 13 23 24 25 26 30 31 45 0 
-28 14 15 16 18 29 32 45 0 
-29 14 15 16 18 28 32 45 0 
-30 2 13 23 24 25 26 27 31 45 0 
-31 2 13 23 24 25 26 27 30 45 0 
-32 14 15 16 18 28 29 45 0 
-33 -34 45 0 
-35 7 11 36 45 0 
-36 7 11 35 45 0 
-37 -34 45 0 
-12 -38 44 0 
-39 6 10 -20 47 0 
-40 48 0 
-40 49 0 
-40 50 0 
-41 45 0 
-42 9 44 0 
-43 -3 45 0 
